20 63 149
1 5 4
1 9 2
1 12 5
1 13 5
1 14 1
1 16 1
1 17 1
2 5 3
2 7 2
2 11 2
2 13 5
2 19 2
2 20 5
3 5 3
3 6 4
3 10 4
3 12 1
3 13 4
3 19 5
4 5 3
4 7 3
4 10 2
4 11 5
4 13 3
4 17 2
5 10 4
5 11 3
5 17 1
5 19 2
5 20 3
6 7 5
6 8 2
6 9 3
6 10 5
6 15 5
7 12 3
7 17 4
7 18 4
7 20 5
8 9 4
8 10 2
8 17 4
9 11 1
9 13 3
9 14 4
10 14 2
10 20 3
11 14 5
11 15 2
11 16 2
11 19 2
11 20 5
12 13 1
12 19 2
13 14 4
13 15 2
13 16 5
13 18 1
15 16 4
16 18 1
17 18 4
17 19 3
18 19 4
